
Gurobi 9.5.2 (mac64[arm]) logging started Fri Apr 28 20:28:08 2023

Set parameter LogFile to value "Java/output/iterative_model_2_machine/scenario_seed_3_nJob_50_machineCount_2/mip_increment_1/log.txt"
Gurobi Optimizer version 9.5.2 build v9.5.2rc0 (mac64[arm])
Thread count: 8 physical cores, 8 logical processors, using up to 8 threads
Optimize a model with 2640 rows, 18832 columns and 216584 nonzeros
Model fingerprint: 0x32ebc12b
Variable types: 0 continuous, 18832 integer (18832 binary)
Coefficient statistics:
  Matrix range     [1e+00, 2e+02]
  Objective range  [2e+01, 5e+06]
  Bounds range     [1e+00, 1e+00]
  RHS range        [1e+00, 1e+00]
Found heuristic solution: objective 2.002011e+07
Presolve removed 203 rows and 2086 columns
Presolve time: 0.24s
Presolved: 2437 rows, 16746 columns, 191794 nonzeros
Variable types: 0 continuous, 16746 integer (16744 binary)
Found heuristic solution: objective 1.796667e+07

Root relaxation: objective 9.033575e+03, 2009 iterations, 0.12 seconds (0.30 work units)

    Nodes    |    Current Node    |     Objective Bounds      |     Work
 Expl Unexpl |  Obj  Depth IntInf | Incumbent    BestBd   Gap | It/Node Time

     0     0 9033.57451    0  106 1.7967e+07 9033.57451   100%     -    0s
H    0     0                    5837920.0000 9033.57451   100%     -    0s
H    0     0                    3981568.0000 9033.57451   100%     -    0s
H    0     0                    3313824.0000 9033.57451   100%     -    0s
H    0     0                    2507840.0000 9033.57451   100%     -    0s
H    0     0                    2467296.0000 9033.57451   100%     -    0s
H    0     0                    1488592.0000 9076.03146  99.4%     -    0s
     0     0 9076.03146    0  180 1488592.00 9076.03146  99.4%     -    0s
H    0     0                    1488576.0000 9076.03146  99.4%     -    1s
H    0     0                    145568.00000 9083.28697  93.8%     -    1s
     0     0 9083.28697    0  190 145568.000 9083.28697  93.8%     -    1s
H    0     0                    145536.00000 9083.28697  93.8%     -    1s
     0     0 9124.04127    0  177 145536.000 9124.04127  93.7%     -    1s
H    0     0                    90272.000000 9124.04127  89.9%     -    1s
     0     0 9124.04127    0  106 90272.0000 9124.04127  89.9%     -    1s
H    0     0                    87408.000000 9124.04127  89.6%     -    1s
     0     0 9124.04127    0  197 87408.0000 9124.04127  89.6%     -    1s
H    0     0                    87376.000000 9124.04127  89.6%     -    1s
H    0     0                    87200.000000 9124.04127  89.5%     -    1s
     0     0 9124.04127    0  197 87200.0000 9124.04127  89.5%     -    2s
     0     0 9125.10300    0  175 87200.0000 9125.10300  89.5%     -    2s
     0     0 9125.22917    0  200 87200.0000 9125.22917  89.5%     -    2s
     0     0 9154.88762    0  216 87200.0000 9154.88762  89.5%     -    2s
H    0     0                    43776.000000 9154.88762  79.1%     -    2s
     0     0 9157.58126    0  203 43776.0000 9157.58126  79.1%     -    2s
     0     0 9157.58340    0  212 43776.0000 9157.58340  79.1%     -    2s
H    0     0                    37504.000000 9157.58340  75.6%     -    2s
H    0     0                    37440.000000 9157.58340  75.5%     -    2s
H    0     0                    37392.000000 9157.58340  75.5%     -    2s
H    0     0                    31856.000000 9157.58340  71.3%     -    2s
     0     0 9170.68132    0  239 31856.0000 9170.68132  71.2%     -    2s
H    0     0                    23824.000000 9170.68132  61.5%     -    2s
     0     0 9175.56090    0  242 23824.0000 9175.56090  61.5%     -    2s
     0     0 9177.51048    0  248 23824.0000 9177.51048  61.5%     -    2s
     0     0 9177.70151    0  257 23824.0000 9177.70151  61.5%     -    2s
     0     0 9177.70277    0  260 23824.0000 9177.70277  61.5%     -    2s
H    0     0                    19264.000000 9177.70277  52.4%     -    2s
H    0     0                    19168.000000 9177.70277  52.1%     -    2s
H    0     0                    15024.000000 9177.70277  38.9%     -    2s
H    0     0                    12112.000000 9177.70277  24.2%     -    3s
     0     0 9198.69885    0  273 12112.0000 9198.69885  24.1%     -    3s
H    0     0                    12032.000000 9198.69885  23.5%     -    3s
H    0     0                    12016.000000 9198.69885  23.4%     -    3s
     0     0 9209.48031    0  281 12016.0000 9209.48031  23.4%     -    3s
     0     0 9210.49477    0  297 12016.0000 9210.49477  23.3%     -    3s
     0     0 9210.58397    0  297 12016.0000 9210.58397  23.3%     -    3s
     0     0 9210.58397    0  298 12016.0000 9210.58397  23.3%     -    3s
     0     0 9223.41994    0  257 12016.0000 9223.41994  23.2%     -    3s
     0     0 9223.41994    0  111 12016.0000 9223.41994  23.2%     -    3s
     0     0 9389.47673    0  176 12016.0000 9389.47673  21.9%     -    3s
     0     0 9424.93067    0  180 12016.0000 9424.93067  21.6%     -    3s
     0     0 9434.64173    0  200 12016.0000 9434.64173  21.5%     -    3s
     0     0 9437.59536    0  207 12016.0000 9437.59536  21.5%     -    3s
     0     0 9439.30213    0  211 12016.0000 9439.30213  21.4%     -    3s
     0     0 9439.92446    0  200 12016.0000 9439.92446  21.4%     -    3s
     0     0 9439.92446    0  200 12016.0000 9439.92446  21.4%     -    3s
     0     0 9456.65705    0  203 12016.0000 9456.65705  21.3%     -    3s
     0     0 9459.16000    0  224 12016.0000 9459.16000  21.3%     -    3s
     0     0 9460.46084    0  224 12016.0000 9460.46084  21.3%     -    3s
     0     0 9460.52934    0  227 12016.0000 9460.52934  21.3%     -    3s
     0     0 9562.22878    0  237 12016.0000 9562.22878  20.4%     -    3s
     0     0 9568.75584    0  250 12016.0000 9568.75584  20.4%     -    3s
     0     0 9570.59986    0  264 12016.0000 9570.59986  20.4%     -    3s
     0     0 9570.70964    0  270 12016.0000 9570.70964  20.4%     -    3s
H    0     0                    12000.000000 9570.70964  20.2%     -    4s
     0     0 9617.44808    0  267 12000.0000 9617.44808  19.9%     -    4s
     0     0 9624.79863    0  270 12000.0000 9624.79863  19.8%     -    4s
     0     0 9626.52274    0  286 12000.0000 9626.52274  19.8%     -    4s
     0     0 9626.75862    0  294 12000.0000 9626.75862  19.8%     -    4s
     0     0 9631.17354    0  291 12000.0000 9631.17354  19.7%     -    4s
H    0     0                    10192.000000 9631.17354  5.50%     -    4s
     0     0 9631.57053    0  283 10192.0000 9631.57053  5.50%     -    4s
     0     0 9633.52751    0  281 10192.0000 9633.52751  5.48%     -    4s
     0     0 9634.40330    0  270 10192.0000 9634.40330  5.47%     -    4s
H    0     0                    10096.000000 9634.40330  4.57%     -    4s
     0     2 9634.40330    0  270 10096.0000 9634.40330  4.57%     -    4s
    15    24 9691.18516    4  226 10096.0000 9650.45586  4.41%   524    5s
H   32    40                    10016.000000 9658.94160  3.56%   421    5s
H   73    80                    10000.000000 9670.94391  3.29%   369    5s
H  106   109                    9840.0000000 9673.18387  1.70%   318    5s
H  145   127                    9824.0000000 9673.18387  1.54%   284    5s
H  149   127                    9776.0000000 9673.18387  1.05%   284    5s
H  205   126                    9760.0000000 9673.18387  0.89%   231    5s
H  332   178                    9728.0000000 9679.03255  0.50%   179    6s
H  340   178                    9712.0000000 9679.03255  0.34%   178    6s

Cutting planes:
  Cover: 16
  Clique: 60
  MIR: 97
  StrongCG: 43
  GUB cover: 75
  Zero half: 21
  RLT: 3

Explored 551 nodes (87888 simplex iterations) in 6.12 seconds (11.52 work units)
Thread count was 8 (of 8 available processors)

Solution count 10: 9712 9728 9760 ... 10192

Optimal solution found (tolerance 1.00e-04)
Best objective 9.712000000000e+03, best bound 9.712000000000e+03, gap 0.0000%

Gurobi 9.5.2 (mac64[arm]) logging started Fri Apr 28 20:28:14 2023

Set parameter LogFile to value "Java/output/iterative_model_2_machine/scenario_seed_3_nJob_50_machineCount_2/mip_increment_1/log.txt"
Gurobi Optimizer version 9.5.2 build v9.5.2rc0 (mac64[arm])
Thread count: 8 physical cores, 8 logical processors, using up to 8 threads
Optimize a model with 2642 rows, 15072 columns and 177227 nonzeros
Model fingerprint: 0x0c58a112
Variable types: 0 continuous, 15072 integer (15072 binary)
Coefficient statistics:
  Matrix range     [1e+00, 2e+02]
  Objective range  [2e+02, 8e+05]
  Bounds range     [1e+00, 1e+00]
  RHS range        [1e+00, 1e+00]
Found heuristic solution: objective 4987496.0000
Presolve removed 668 rows and 1400 columns
Presolve time: 0.20s
Presolved: 1974 rows, 13672 columns, 160678 nonzeros
Variable types: 0 continuous, 13672 integer (13670 binary)
Found heuristic solution: objective 3006036.0000

Root relaxation: objective 5.287976e+03, 3299 iterations, 0.16 seconds (0.36 work units)

    Nodes    |    Current Node    |     Objective Bounds      |     Work
 Expl Unexpl |  Obj  Depth IntInf | Incumbent    BestBd   Gap | It/Node Time

     0     0 5287.97614    0  123 3006036.00 5287.97614   100%     -    0s
H    0     0                    1339172.0000 5287.97614   100%     -    0s
H    0     0                    1073472.0000 5287.97614   100%     -    0s
H    0     0                    513148.00000 5287.97614  99.0%     -    0s
H    0     0                    79064.000000 5304.37324  93.3%     -    0s
H    0     0                    79044.000000 5304.37324  93.3%     -    0s
     0     0 5304.37324    0  170 79044.0000 5304.37324  93.3%     -    0s
H    0     0                    63892.000000 5304.37324  91.7%     -    0s
     0     0 5306.12598    0  159 63892.0000 5306.12598  91.7%     -    0s
     0     0 5319.93519    0  168 63892.0000 5319.93519  91.7%     -    1s
     0     0 5321.37034    0  174 63892.0000 5321.37034  91.7%     -    1s
     0     0 5321.61516    0  182 63892.0000 5321.61516  91.7%     -    1s
     0     0 5321.62642    0  178 63892.0000 5321.62642  91.7%     -    1s
     0     0 5367.30281    0  180 63892.0000 5367.30281  91.6%     -    1s
H    0     0                    63884.000000 5367.30281  91.6%     -    1s
     0     0 5379.70665    0  188 63884.0000 5379.70665  91.6%     -    1s
     0     0 5383.66695    0  177 63884.0000 5383.66695  91.6%     -    1s
     0     0 5383.70425    0  180 63884.0000 5383.70425  91.6%     -    1s
     0     0 5499.10622    0  185 63884.0000 5499.10622  91.4%     -    2s
H    0     0                    55788.000000 5499.10622  90.1%     -    2s
     0     0 5517.67274    0  174 55788.0000 5517.67274  90.1%     -    2s
     0     0 5517.92908    0  169 55788.0000 5517.92908  90.1%     -    2s
     0     0 5518.25329    0  178 55788.0000 5518.25329  90.1%     -    2s
     0     0 5518.25332    0  180 55788.0000 5518.25332  90.1%     -    2s
     0     0 5590.85950    0  155 55788.0000 5590.85950  90.0%     -    2s
     0     0 5590.85950    0  122 55788.0000 5590.85950  90.0%     -    2s
H    0     0                    55780.000000 5590.85950  90.0%     -    2s
     0     0 5591.40772    0  167 55780.0000 5591.40772  90.0%     -    3s
H    0     0                    54552.000000 5591.40772  89.8%     -    3s
     0     0 5597.27990    0  161 54552.0000 5597.27990  89.7%     -    3s
     0     0 5600.90761    0  171 54552.0000 5600.90761  89.7%     -    3s
     0     0 5602.04406    0  175 54552.0000 5602.04406  89.7%     -    3s
     0     0 5653.81528    0  200 54552.0000 5653.81528  89.6%     -    3s
H    0     0                    54548.000000 5653.81528  89.6%     -    3s
     0     0 5655.17817    0  196 54548.0000 5655.17817  89.6%     -    3s
     0     0 5655.32877    0  200 54548.0000 5655.32877  89.6%     -    3s
     0     0 5655.34111    0  198 54548.0000 5655.34111  89.6%     -    3s
     0     0 5742.01624    0  212 54548.0000 5742.01624  89.5%     -    3s
     0     0 5768.02483    0  235 54548.0000 5768.02483  89.4%     -    3s
     0     0 5787.37920    0  230 54548.0000 5787.37920  89.4%     -    3s
     0     0 5788.16112    0  225 54548.0000 5788.16112  89.4%     -    3s
     0     0 5788.51255    0  231 54548.0000 5788.51255  89.4%     -    3s
     0     0 5788.69132    0  242 54548.0000 5788.69132  89.4%     -    3s
     0     0 5788.72070    0  241 54548.0000 5788.72070  89.4%     -    3s
     0     0 5842.55595    0  219 54548.0000 5842.55595  89.3%     -    4s
H    0     0                    14476.000000 5842.55595  59.6%     -    4s
     0     0 5864.28889    0  228 14476.0000 5864.28889  59.5%     -    4s
     0     0 5883.33506    0  220 14476.0000 5883.33506  59.4%     -    4s
     0     0 5884.09168    0  227 14476.0000 5884.09168  59.4%     -    4s
     0     0 5884.14995    0  223 14476.0000 5884.14995  59.4%     -    4s
     0     0 5932.21474    0  220 14476.0000 5932.21474  59.0%     -    4s
H    0     0                    14452.000000 5932.21474  59.0%     -    4s
     0     0 5937.61001    0  244 14452.0000 5937.61001  58.9%     -    4s
     0     0 5937.78444    0  254 14452.0000 5937.78444  58.9%     -    4s
     0     0 5963.18485    0  222 14452.0000 5963.18485  58.7%     -    4s
H    0     0                    14448.000000 5963.18485  58.7%     -    4s
     0     0 5964.05517    0  228 14448.0000 5964.05517  58.7%     -    4s
     0     0 5964.26424    0  225 14448.0000 5964.26424  58.7%     -    4s
     0     0 5997.03822    0  240 14448.0000 5997.03822  58.5%     -    4s
     0     0 5999.29255    0  248 14448.0000 5999.29255  58.5%     -    4s
     0     0 5999.29764    0  249 14448.0000 5999.29764  58.5%     -    4s
     0     0 6039.03336    0  221 14448.0000 6039.03336  58.2%     -    4s
     0     0 6042.64644    0  215 14448.0000 6042.64644  58.2%     -    5s
     0     0 6042.90860    0  219 14448.0000 6042.90860  58.2%     -    5s
     0     0 6047.32462    0  214 14448.0000 6047.32462  58.1%     -    5s
     0     0 6048.00000    0   10 14448.0000 6048.00000  58.1%     -    5s
     0     0 6048.00000    0    8 14448.0000 6048.00000  58.1%     -    5s
     0     0 6048.22055    0  247 14448.0000 6048.22055  58.1%     -    5s
     0     0 6048.22055    0  240 14448.0000 6048.22055  58.1%     -    5s
H    0     0                    6056.0000000 6048.22055  0.13%     -    5s

Explored 1 nodes (26850 simplex iterations) in 5.39 seconds (9.14 work units)
Thread count was 8 (of 8 available processors)

Solution count 10: 6056 6056 6056 ... 55788

Optimal solution found (tolerance 1.00e-04)
Best objective 6.056000000000e+03, best bound 6.056000000000e+03, gap 0.0000%

Gurobi 9.5.2 (mac64[arm]) logging started Fri Apr 28 20:28:20 2023

Set parameter LogFile to value "Java/output/iterative_model_2_machine/scenario_seed_3_nJob_50_machineCount_2/mip_increment_1/log.txt"
Gurobi Optimizer version 9.5.2 build v9.5.2rc0 (mac64[arm])
Thread count: 8 physical cores, 8 logical processors, using up to 8 threads
Optimize a model with 2660 rows, 12644 columns and 145066 nonzeros
Model fingerprint: 0x85d2e5e6
Variable types: 0 continuous, 12644 integer (12644 binary)
Coefficient statistics:
  Matrix range     [1e+00, 2e+02]
  Objective range  [9e+01, 1e+05]
  Bounds range     [1e+00, 1e+00]
  RHS range        [1e+00, 1e+00]
Presolve removed 1291 rows and 2355 columns
Presolve time: 0.17s
Presolved: 1369 rows, 10289 columns, 116556 nonzeros
Variable types: 0 continuous, 10289 integer (10283 binary)

Root relaxation: objective 1.167980e+04, 3171 iterations, 0.15 seconds (0.35 work units)

    Nodes    |    Current Node    |     Objective Bounds      |     Work
 Expl Unexpl |  Obj  Depth IntInf | Incumbent    BestBd   Gap | It/Node Time

     0     0 11679.8016    0  171          - 11679.8016      -     -    0s
H    0     0                    382398.00000 11679.8016  96.9%     -    0s
H    0     0                    181068.00000 11679.8016  93.5%     -    0s
H    0     0                    170818.00000 11679.8016  93.2%     -    0s
H    0     0                    104616.00000 11956.7576  88.6%     -    0s
H    0     0                    104613.00000 11956.7576  88.6%     -    0s
     0     0 11956.7576    0  233 104613.000 11956.7576  88.6%     -    0s
H    0     0                    58564.000000 11956.7576  79.6%     -    0s
     0     0 11996.5028    0  214 58564.0000 11996.5028  79.5%     -    1s
     0     0 12000.1772    0  215 58564.0000 12000.1772  79.5%     -    1s
     0     0 12000.1875    0  216 58564.0000 12000.1875  79.5%     -    1s
     0     0 12025.8251    0  244 58564.0000 12025.8251  79.5%     -    1s
H    0     0                    53268.000000 12025.8251  77.4%     -    1s
     0     0 12041.4773    0  230 53268.0000 12041.4773  77.4%     -    1s
     0     0 12041.4979    0  235 53268.0000 12041.4979  77.4%     -    1s
     0     0 12101.2532    0  208 53268.0000 12101.2532  77.3%     -    1s
H    0     0                    52836.000000 12101.2532  77.1%     -    2s
     0     0 12107.8865    0  211 52836.0000 12107.8865  77.1%     -    2s
     0     0 12214.5739    0  224 52836.0000 12214.5739  76.9%     -    2s
     0     0 12216.4901    0  223 52836.0000 12216.4901  76.9%     -    2s
     0     0 12216.5559    0  227 52836.0000 12216.5559  76.9%     -    2s
     0     0 12363.0964    0  290 52836.0000 12363.0964  76.6%     -    2s
H    0     0                    21527.000000 12363.0964  42.6%     -    2s
     0     0 12367.6379    0  274 21527.0000 12367.6379  42.5%     -    2s
     0     0 12367.7003    0  272 21527.0000 12367.7003  42.5%     -    2s
     0     0 12565.7717    0  246 21527.0000 12565.7717  41.6%     -    3s
H    0     0                    18806.000000 12565.7717  33.2%     -    3s
     0     0 12569.2976    0  254 18806.0000 12569.2976  33.2%     -    3s
     0     0 12569.8465    0  263 18806.0000 12569.8465  33.2%     -    3s
     0     0 12569.8509    0  264 18806.0000 12569.8509  33.2%     -    3s
     0     0 12666.6161    0  251 18806.0000 12666.6161  32.6%     -    3s
     0     0 12666.6161    0  167 18806.0000 12666.6161  32.6%     -    3s
H    0     0                    18803.000000 12666.6161  32.6%     -    3s
H    0     0                    18103.000000 12666.6161  30.0%     -    4s
H    0     0                    18090.000000 12666.6161  30.0%     -    4s
H    0     0                    18087.000000 12666.6161  30.0%     -    4s
     0     0 12666.6161    0  224 18087.0000 12666.6161  30.0%     -    4s
H    0     0                    18086.000000 12666.6161  30.0%     -    4s
     0     0 12666.6161    0  278 18086.0000 12666.6161  30.0%     -    4s
     0     0 12666.6161    0  252 18086.0000 12666.6161  30.0%     -    4s
     0     0 12666.6161    0  266 18086.0000 12666.6161  30.0%     -    4s
     0     0 12670.1445    0  249 18086.0000 12670.1445  29.9%     -    4s
     0     0 12670.3433    0  253 18086.0000 12670.3433  29.9%     -    4s
     0     0 12670.3433    0  254 18086.0000 12670.3433  29.9%     -    4s
     0     0 12734.1181    0  249 18086.0000 12734.1181  29.6%     -    4s
     0     0 12736.1795    0  255 18086.0000 12736.1795  29.6%     -    4s
     0     0 12736.1834    0  256 18086.0000 12736.1834  29.6%     -    4s
H    0     0                    18083.000000 12736.1834  29.6%     -    5s
     0     0 13023.6822    0  253 18083.0000 13023.6822  28.0%     -    5s
H    0     0                    15917.000000 13023.6822  18.2%     -    5s
     0     0 13134.3333    0   49 15917.0000 13134.3333  17.5%     -    5s
     0     0 13139.0000    0   22 15917.0000 13139.0000  17.5%     -    5s
     0     0 13139.0000    0   12 15917.0000 13139.0000  17.5%     -    5s
H    0     0                    13139.000000 13139.0000  0.00%     -    5s
     0     0 13139.0000    0   12 13139.0000 13139.0000  0.00%     -    5s

Cutting planes:
  Gomory: 2
  Cover: 8
  Clique: 45
  MIR: 59
  StrongCG: 18
  GUB cover: 55
  Zero half: 15
  RLT: 11

Explored 1 nodes (36178 simplex iterations) in 5.52 seconds (9.71 work units)
Thread count was 8 (of 8 available processors)

Solution count 10: 13139 15917 18083 ... 21527

Optimal solution found (tolerance 1.00e-04)
Best objective 1.313900000000e+04, best bound 1.313900000000e+04, gap 0.0000%

Gurobi 9.5.2 (mac64[arm]) logging started Fri Apr 28 20:28:26 2023

Set parameter LogFile to value "Java/output/iterative_model_2_machine/scenario_seed_3_nJob_50_machineCount_2/mip_increment_1/log.txt"
Gurobi Optimizer version 9.5.2 build v9.5.2rc0 (mac64[arm])
Thread count: 8 physical cores, 8 logical processors, using up to 8 threads
Optimize a model with 2806 rows, 61632 columns and 718196 nonzeros
Model fingerprint: 0xe65a0e9a
Variable types: 0 continuous, 61632 integer (61632 binary)
Coefficient statistics:
  Matrix range     [1e+00, 2e+02]
  Objective range  [3e+00, 5e+06]
  Bounds range     [1e+00, 1e+00]
  RHS range        [1e+00, 1e+00]

Warning: Completing partial solution with 61488 unfixed non-continuous variables out of 61632
User MIP start produced solution with objective 25749 (0.05s)
Loaded user MIP start with objective 25749

Presolve removed 112 rows and 6611 columns
Presolve time: 0.79s
Presolved: 2694 rows, 55021 columns, 640704 nonzeros
Variable types: 0 continuous, 55021 integer (55011 binary)

Root simplex log...

Iteration    Objective       Primal Inf.    Dual Inf.      Time
   26541    1.5706156e+04   1.108784e+04   0.000000e+00      5s
   37547    1.6026663e+04   0.000000e+00   0.000000e+00      8s

Root relaxation: objective 1.602666e+04, 37547 iterations, 6.74 seconds (16.95 work units)

    Nodes    |    Current Node    |     Objective Bounds      |     Work
 Expl Unexpl |  Obj  Depth IntInf | Incumbent    BestBd   Gap | It/Node Time

     0     0 16026.6628    0  526 25749.0000 16026.6628  37.8%     -    8s
H    0     0                    25729.000000 16026.6628  37.7%     -    8s
H    0     0                    25637.000000 16026.6628  37.5%     -    8s
     0     0 16063.0582    0  701 25637.0000 16063.0582  37.3%     -   12s
     0     0 16063.0582    0  525 25637.0000 16063.0582  37.3%     -   17s
H    0     0                    25636.000000 16063.0582  37.3%     -   17s
H    0     0                    25596.000000 16063.0582  37.2%     -   17s
H    0     0                    25549.000000 16063.0582  37.1%     -   17s
     0     0 16107.4201    0  728 25549.0000 16107.4201  37.0%     -   20s
     0     0 16115.6055    0  778 25549.0000 16115.6055  36.9%     -   21s
     0     0 16117.9684    0  740 25549.0000 16117.9684  36.9%     -   22s
     0     0 16117.9974    0  745 25549.0000 16117.9974  36.9%     -   22s
     0     0 16117.9975    0  745 25549.0000 16117.9975  36.9%     -   22s
     0     0 16298.1322    0  813 25549.0000 16298.1322  36.2%     -   25s
H    0     0                    25500.000000 16298.1322  36.1%     -   25s
     0     0 16394.1979    0  812 25500.0000 16394.1979  35.7%     -   30s
     0     0 16399.1672    0  816 25500.0000 16399.1672  35.7%     -   31s
     0     0 16399.3341    0  848 25500.0000 16399.3341  35.7%     -   31s
     0     0 16399.4091    0  837 25500.0000 16399.4091  35.7%     -   32s
     0     0 16399.5149    0  822 25500.0000 16399.5149  35.7%     -   32s
     0     0 16399.5149    0  824 25500.0000 16399.5149  35.7%     -   32s
     0     0 16744.3485    0  854 25500.0000 16744.3485  34.3%     -   37s
     0     0 16766.0422    0  922 25500.0000 16766.0422  34.3%     -   41s
     0     0 16767.3812    0  907 25500.0000 16767.3812  34.2%     -   42s
     0     0 16767.5463    0  925 25500.0000 16767.5463  34.2%     -   42s
     0     0 17098.7644    0  939 25500.0000 17098.7644  32.9%     -   46s
     0     0 17112.8131    0  991 25500.0000 17112.8131  32.9%     -   49s
     0     0 17117.4223    0  964 25500.0000 17117.4223  32.9%     -   50s
     0     0 17118.1332    0  964 25500.0000 17118.1332  32.9%     -   51s
     0     0 17118.2299    0  972 25500.0000 17118.2299  32.9%     -   51s
     0     0 17712.5980    0  951 25500.0000 17712.5980  30.5%     -   62s
     0     0 17835.8148    0 1018 25500.0000 17835.8148  30.1%     -   67s
     0     0 17839.3644    0 1022 25500.0000 17839.3644  30.0%     -   68s
     0     0 17841.4752    0 1046 25500.0000 17841.4752  30.0%     -   69s
     0     0 17841.6398    0 1036 25500.0000 17841.6398  30.0%     -   70s
     0     0 18163.1685    0  982 25500.0000 18163.1685  28.8%     -   76s
H    0     0                    25497.000000 18163.1685  28.8%     -   76s
H    0     0                    25479.000000 18163.1685  28.7%     -   80s
     0     0 18230.5806    0  992 25479.0000 18230.5806  28.4%     -   81s
     0     0 18244.5035    0 1048 25479.0000 18244.5035  28.4%     -   84s
     0     0 18247.9679    0 1050 25479.0000 18247.9679  28.4%     -   86s
     0     0 18248.9498    0 1043 25479.0000 18248.9498  28.4%     -   87s
     0     0 18249.0509    0 1057 25479.0000 18249.0509  28.4%     -   87s
     0     0 18530.6564    0 1006 25479.0000 18530.6564  27.3%     -   94s
     0     0 18568.3926    0 1050 25479.0000 18568.3926  27.1%     -   98s
     0     0 18574.3875    0 1077 25479.0000 18574.3875  27.1%     -  100s
     0     0 18575.1827    0 1081 25479.0000 18575.1827  27.1%     -  101s
     0     0 18912.5501    0 1129 25479.0000 18912.5501  25.8%     -  107s
H    0     0                    25448.000000 18912.5501  25.7%     -  107s
     0     0 18930.2568    0 1069 25448.0000 18930.2568  25.6%     -  111s
     0     0 18939.7535    0 1106 25448.0000 18939.7535  25.6%     -  113s
     0     0 18943.1298    0 1139 25448.0000 18943.1298  25.6%     -  115s
     0     0 18944.3648    0 1131 25448.0000 18944.3648  25.6%     -  116s
     0     0 19287.8690    0 1107 25448.0000 19287.8690  24.2%     -  124s
H    0     0                    25404.000000 19287.8690  24.1%     -  124s
     0     0 19313.8434    0 1154 25404.0000 19313.8434  24.0%     -  129s
     0     0 19318.8811    0 1163 25404.0000 19318.8811  24.0%     -  132s
     0     0 19321.8874    0 1156 25404.0000 19321.8874  23.9%     -  134s
     0     0 19322.0536    0 1176 25404.0000 19322.0536  23.9%     -  134s
     0     0 19762.4045    0 1163 25404.0000 19762.4045  22.2%     -  141s
     0     0 19769.1401    0 1183 25404.0000 19769.1401  22.2%     -  143s
     0     0 19770.4611    0 1175 25404.0000 19770.4611  22.2%     -  145s
     0     0 20370.0090    0 1169 25404.0000 20370.0090  19.8%     -  151s
H    0     0                    25400.000000 20370.0090  19.8%     -  152s
     0     0 20385.1173    0 1187 25400.0000 20385.1173  19.7%     -  156s
     0     0 20390.5823    0 1207 25400.0000 20390.5823  19.7%     -  160s
     0     0 20392.0635    0 1206 25400.0000 20392.0635  19.7%     -  162s
     0     0 20831.2009    0 1188 25400.0000 20831.2009  18.0%     -  168s
H    0     0                    25399.000000 20831.2009  18.0%     -  168s
     0     0 20838.4156    0 1223 25399.0000 20838.4156  18.0%     -  171s
     0     0 20841.5478    0 1224 25399.0000 20841.5478  17.9%     -  172s
     0     0 21120.8915    0 1213 25399.0000 21120.8915  16.8%     -  176s
H    0     0                    25348.000000 21120.8915  16.7%     -  178s
     0     0 21143.0611    0 1201 25348.0000 21143.0611  16.6%     -  181s
     0     0 21162.5789    0 1248 25348.0000 21162.5789  16.5%     -  191s
     0     0 21163.3367    0 1273 25348.0000 21163.3367  16.5%     -  192s
     0     0 21436.5608    0 1267 25348.0000 21436.5608  15.4%     -  201s
H    0     0                    25320.000000 21436.5608  15.3%     -  201s
     0     0 21439.3990    0 1263 25320.0000 21439.3990  15.3%     -  204s
     0     0 21806.3422    0 1193 25320.0000 21806.3422  13.9%     -  211s
     0     0 21821.2128    0 1161 25320.0000 21821.2128  13.8%     -  216s
     0     0 21824.4495    0 1170 25320.0000 21824.4495  13.8%     -  218s
     0     0 22008.3523    0 1177 25320.0000 22008.3523  13.1%     -  222s
     0     0 22017.1628    0 1202 25320.0000 22017.1628  13.0%     -  226s
     0     0 22018.8593    0 1257 25320.0000 22018.8593  13.0%     -  228s
     0     0 22219.9542    0 1175 25320.0000 22219.9542  12.2%     -  233s
     0     0 22225.2610    0 1197 25320.0000 22225.2610  12.2%     -  238s
     0     0 22227.7253    0 1222 25320.0000 22227.7253  12.2%     -  240s
     0     0 22497.6804    0 1181 25320.0000 22497.6804  11.1%     -  243s
     0     0 22504.0358    0 1215 25320.0000 22504.0358  11.1%     -  246s
     0     0 22504.9255    0 1251 25320.0000 22504.9255  11.1%     -  247s
     0     0 22831.5935    0 1188 25320.0000 22831.5935  9.83%     -  254s
     0     0 22835.2417    0 1201 25320.0000 22835.2417  9.81%     -  257s
     0     0 22926.9599    0 1151 25320.0000 22926.9599  9.45%     -  261s
     0     0 22936.4975    0 1187 25320.0000 22936.4975  9.41%     -  264s
     0     0 22939.5531    0 1167 25320.0000 22939.5531  9.40%     -  265s
     0     0 23105.6394    0 1188 25320.0000 23105.6394  8.75%     -  271s
     0     0 23109.7527    0 1222 25320.0000 23109.7527  8.73%     -  279s
     0     0 23331.0862    0 1183 25320.0000 23331.0862  7.86%     -  283s
     0     0 23337.5099    0 1218 25320.0000 23337.5099  7.83%     -  285s
     0     0 23344.7766    0 1251 25320.0000 23344.7766  7.80%     -  287s
     0     0 23346.4996    0 1257 25320.0000 23346.4996  7.79%     -  288s
     0     0 23385.0069    0 1270 25320.0000 23385.0069  7.64%     -  293s
     0     0 23385.0458    0 1240 25320.0000 23385.0458  7.64%     -  293s
     0     0 23385.0458    0  584 25320.0000 23385.0458  7.64%     -  311s
     0     0 23385.0458    0  771 25320.0000 23385.0458  7.64%     -  316s
     0     0 23385.0458    0  842 25320.0000 23385.0458  7.64%     -  320s
     0     0 23385.0458    0  896 25320.0000 23385.0458  7.64%     -  325s
     0     0 23385.0458    0  993 25320.0000 23385.0458  7.64%     -  330s
     0     0 23385.0458    0 1079 25320.0000 23385.0458  7.64%     -  334s
     0     0 23385.0458    0 1153 25320.0000 23385.0458  7.64%     -  340s
     0     0 23385.0458    0 1182 25320.0000 23385.0458  7.64%     -  343s
     0     0 23385.7672    0 1200 25320.0000 23385.7672  7.64%     -  344s
     0     0 23387.0422    0 1217 25320.0000 23387.0422  7.63%     -  345s
     0     0 23387.3149    0 1202 25320.0000 23387.3149  7.63%     -  346s
     0     0 23827.1646    0 1214 25320.0000 23827.1646  5.90%     -  353s
     0     0 23849.5727    0 1217 25320.0000 23849.5727  5.81%     -  355s
     0     0 23852.8818    0 1228 25320.0000 23852.8818  5.79%     -  357s
     0     0 24116.3157    0 1227 25320.0000 24116.3157  4.75%     -  363s
     0     0 24123.5007    0 1225 25320.0000 24123.5007  4.73%     -  369s
     0     0 24124.4799    0 1222 25320.0000 24124.4799  4.72%     -  370s
     0     0 24202.3378    0 1222 25320.0000 24202.3378  4.41%     -  374s
H    0     0                    25304.000000 24202.3378  4.35%     -  375s
     0     0 24205.9998    0 1265 25304.0000 24205.9998  4.34%     -  376s
     0     0 24259.5234    0 1255 25304.0000 24259.5234  4.13%     -  379s
     0     0 24259.5234    0 1239 25304.0000 24259.5234  4.13%     -  380s
     0     2 24259.5589    0 1235 25304.0000 24259.5589  4.13%     -  397s
     1     4 24531.4976    1 1153 25304.0000 24259.5589  4.13%  9398  400s
     3     8 24571.8774    2 1205 25304.0000 24323.0785  3.88%  7522  405s
     7    11 24600.7932    3 1218 25304.0000 24342.0154  3.80%  8126  411s
    15    19 25098.2168    4 1148 25304.0000 24342.1227  3.80%  8575  424s
    23    27 25115.9967    5 1024 25304.0000 24342.1640  3.80%  8673  429s
    31    32 25169.6325    6 1054 25304.0000 24342.1640  3.80%  8055  437s
    39    38 25116.4968    6  996 25304.0000 24342.1640  3.80%  7525  445s
    47    46 25235.6807    7 1064 25304.0000 24342.1640  3.80%  7671  456s
    55    52     cutoff    7      25304.0000 24342.1640  3.80%  7348  461s
    65    61     cutoff    8      25304.0000 24342.1640  3.80%  6862  468s
H   69    61                    25300.000000 24342.1640  3.79%  6771  468s
    77    67     cutoff    8      25300.0000 24342.1640  3.79%  6542  473s
    89    72     cutoff    8      25300.0000 24344.8079  3.78%  6108  479s
   102    83 24428.4929    5  815 25300.0000 24344.8079  3.78%  5934  485s
H  109    83                    25294.000000 24344.8079  3.75%  5875  485s
   113    96 24349.8611    5  920 25294.0000 24344.8079  3.75%  5851  493s
   126   100 24404.3296    7  867 25294.0000 24344.8079  3.75%  5875  505s
H  139   110                    25274.000000 24344.8079  3.68%  6000  515s
H  145   110                    25260.000000 24344.8079  3.62%  6009  515s
   153   120 24389.0900    8  830 25260.0000 24344.8079  3.62%  5981  525s
   167   133 24359.9220    8  919 25260.0000 24344.8079  3.62%  5939  532s
H  184   138                    25255.000000 24344.8079  3.60%  5813  548s
H  185   138                    25248.000000 24344.8079  3.58%  5867  548s
H  185   138                    25208.000000 24344.8079  3.42%  5867  548s
H  189   138                    25200.000000 24344.8079  3.39%  6014  548s
H  190   138                    25187.000000 24344.8079  3.34%  5991  548s
H  196   138                    24884.000000 24344.8079  2.17%  5976  548s
   197   138 24382.5320   10  923 24884.0000 24344.8079  2.17%  5978  559s
   217   156 24384.5035   11  913 24884.0000 24344.8079  2.17%  5835  567s
H  237   165                    24837.000000 24344.8079  1.98%  5746  577s
H  241   165                    24785.000000 24344.8079  1.78%  5728  577s
   246   174 24394.8021    8  920 24785.0000 24344.8079  1.78%  5689  581s

Cutting planes:
  Gomory: 1
  Cover: 12
  Clique: 206
  MIR: 378
  StrongCG: 197
  GUB cover: 366
  Zero half: 7
  RLT: 1
  Relax-and-lift: 2

Explored 255 nodes (2315181 simplex iterations) in 581.01 seconds (1579.94 work units)
Thread count was 8 (of 8 available processors)

Solution count 10: 24785 24837 24884 ... 25274

Time limit reached
Best objective 2.478500000000e+04, best bound 2.434500000000e+04, gap 1.7753%
